300
[39,42,50,51,52,54,58,59,60,61,81,95,98,99,102,105,117,118,120,121,123,129,130,134,135,138,148,150,155,156,161,163,171,172,174,190,196,200,208,215,218,230,231,240]
[1,1,1,1,2,2,2,1,1,1,1,1,1,1,1,2,1,2,1,1,1,1,1,1,1,1,1,1,1,1,1,1,1,1,1,2,1,1,1,1,1,1,1,1]
